216 300 111 104 124 137 112 148 132 107 117 114 108 146 123 150 136 121 142 118 119 139 137 146 132 120 128 101 135 129 115 142 149 126 146 122 138 132 145 119 140 111 134 148 131 131 121 116 101 113 109 145 101 146 140 107 140 118 109 124 121 149 115 119 150 135 116 137 117 110 130 106 146 138 103 126 119 125 116 145 112 150 140 138 145 103 145 108 146 128 106 117 127 146 110 126 131 126 112 148 110 116 103 130 104 131 130 148 130 147 116 142 146 105 129 115 109 149 123 129 126 104 146 102 150 106 128 130 132 114 127 117 105 130 147 109 111 127 131 141 148 147 107 117 127 136 106 110 134 104 139 135 108 135 137 107 141 140 138 147 128 139 138 133 119 135 116 104 136 147 119 133 144 126 124 120 137 131 130 145 109 143 129 117 127 116 149 142 130 110 139 107 150 126 141 143 135 106 147 120 128 140 127 121 116 126 115 102 131 119 147 140 111 126 131 113 116 129 